SPARKNaCl/why3-z3/sparknacl-sign.adb_337_32_range_check_1.smt2
;; produced by z3_gnatprove.drv ;;
(set-info :smt-lib-version 2.5)
(set-info :source |VC generated by SPARK 2014|)
(set-info :category industrial)
(set-info :status unknown)
;;; generated by SMT-LIB2 driver
;;; SMT-LIB2 driver: bit-vectors, common part
;;; SMT-LIB2: integer arithmetic
(declare-datatypes ()
  ((int__ref (int__refqtmk (int__content Int)))))

(declare-sort i64 0)

;; "i64'int"
(declare-fun i64qtint (i64) Int)

;; "i64'axiom"
(assert
  (forall ((i i64))
    (and
      (<= (- 9223372036854775808) (i64qtint i))
      (<= (i64qtint i) 9223372036854775807))))

;; "in_range"
(define-fun in_range ((x Int)) Bool
  (and (<= (- 9223372036854775808) x) (<= x 9223372036854775807)))

;; "to_rep"
(define-fun to_rep ((x i64)) Int
  (i64qtint x))

;; "of_rep"
(declare-fun of_rep (Int) i64)

;; "inversion_axiom"
(assert
  (forall ((x i64)) (! (= (of_rep (to_rep x)) x) :pattern ((to_rep x)) )))

;; "range_axiom"
(assert (forall ((x i64)) (! (in_range (to_rep x)) :pattern ((to_rep x)) )))

;; "coerce_axiom"
(assert
  (forall ((x Int))
    (! (=> (in_range x) (= (to_rep (of_rep x)) x)) :pattern ((to_rep
                                                               (of_rep x))) )))

(declare-sort map1 0)

;; "has_bounds"
(declare-fun has_bounds (map1
  Int
  Int) Bool)

;; "get"
(declare-fun get (map1
  Int) i64)

(declare-const x map1)

(declare-sort xl_limb 0)

;; "xl_limb'int"
(declare-fun xl_limbqtint (xl_limb) Int)

;; "xl_limb'axiom"
(assert
  (forall ((i xl_limb))
    (and
      (<= (- 33299444949360) (xl_limbqtint i))
      (<= (xl_limbqtint i) 33299444949360))))

;; "in_range"
(define-fun in_range1 ((x1 Int)) Bool
  (and (<= (- 33299444949360) x1) (<= x1 33299444949360)))

;; "to_rep"
(define-fun to_rep1 ((x1 xl_limb)) Int
  (xl_limbqtint x1))

;; "of_rep"
(declare-fun of_rep1 (Int) xl_limb)

;; "inversion_axiom"
(assert
  (forall ((x1 xl_limb))
    (! (= (of_rep1 (to_rep1 x1)) x1) :pattern ((to_rep1 x1)) )))

;; "range_axiom"
(assert
  (forall ((x1 xl_limb))
    (! (in_range1 (to_rep1 x1)) :pattern ((to_rep1 x1)) )))

;; "coerce_axiom"
(assert
  (forall ((x1 Int))
    (! (=> (in_range1 x1) (= (to_rep1 (of_rep1 x1)) x1)) :pattern ((to_rep1
                                                                    (of_rep1
                                                                    x1))) )))

(declare-sort map2 0)

(declare-datatypes ()
  ((map__ref (map__refqtmk (map__content map2)))))

;; "has_bounds"
(declare-fun has_bounds1 (map2
  Int
  Int) Bool)

;; "get"
(declare-fun get1 (map2
  Int) xl_limb)

;; "temp_____aggregate_def_2288"
(declare-fun temp_____aggregate_def_2288 (Int) map2)

(declare-const rliteral xl_limb)

;; "rliteral_axiom"
(assert (= (xl_limbqtint rliteral) 0))

(declare-const xl map2)

;; "Assume"
(assert (has_bounds x 0 63))

;; "Assume"
(assert (has_bounds x 0 63))

;; "Assume"
(assert (has_bounds1 xl 0 63))

;; "Assume"
(assert
  (forall ((k Int))
    (=>
      (and (<= 0 k) (<= k 63))
      (let ((temp___2311 (to_rep (get x k))))
        (and (<= 0 temp___2311) (<= temp___2311 2081055))))))

(declare-const temp___2292 map2)

;; "H"
(assert (has_bounds1 temp___2292 0 63))

;; "H"
(assert
  (forall ((temp___2291 Int))
    (! (=>
         (and (<= 0 temp___2291) (<= temp___2291 63))
         (= (get1 temp___2292 temp___2291) rliteral)) :pattern ((get1
                                                                  temp___2292
                                                                  temp___2291)) )))

;; "H"
(assert (= temp___2292 (temp_____aggregate_def_2288 0)))

;; "temp_____aggregate_def_2288'result'unused"
(define-fun temp_____aggregate_def_2288qtresultqtunused () map2
  temp___2292)

(declare-const xl1 map2)

;; "xl'unused"
(define-fun xlqtunused () map__ref
  (map__refqtmk xl1))

;; "H"
(assert (= xl1 temp___2292))

(declare-const k Int)

;; "k'unused"
(define-fun kqtunused () int__ref
  (int__refqtmk k))

;; "H"
(assert (= k 0))

;; "int__content'result'unused"
(define-fun int__contentqtresultqtunused () Int
  k)

;; "o"
(define-fun o () Bool
  (ite (<= k 63) true false))

;; "infix <='result'unused"
(define-fun infix_lseqqtresultqtunused () Bool
  o)

;; "int__content'result'unused"
(define-fun int__contentqtresultqtunused1 () Int
  k)

;; "o"
(define-fun o1 () Bool
  (ite (<= 0 k) true false))

;; "infix <='result'unused"
(define-fun infix_lseqqtresultqtunused1 () Bool
  o1)

;; "o"
(define-fun o2 () Bool
  (and o1 o))

;; "andb'result'unused"
(define-fun andbqtresultqtunused () Bool
  o2)

;; "H"
(assert (= o2 true))

;; "temp___loop_entry_2298'unused"
(define-fun temp___loop_entry_2298qtunused () map2
  xl1)

;; "map__content'result'unused"
(define-fun map__contentqtresultqtunused () map2
  xl1)

;; "int__content'result'unused"
(define-fun int__contentqtresultqtunused2 () Int
  k)

;; "o"
(define-fun o3 () i64
  (get x k))

;; "get'result'unused"
(define-fun getqtresultqtunused () i64
  o3)

(declare-const o4 Int)

;; "Ensures"
(assert (= (to_rep o3) o4))

;; "to_rep'result'unused"
(define-fun to_repqtresultqtunused () Int
  o4)

;; Goal "def'vc"
;; File "sparknacl-sign.adb", line 278, characters 0-0
(assert
  (not (<= (- 33299444949360) o4)))

(check-sat)
